# Solution for model GasLib-40
# Objective value = 1.1879387877347471e+01
loadshed[innode_1] 0
loadshed[innode_2] 0
loadshed[innode_3] 0
loadshed[innode_4] 0
loadshed[innode_5] 0
loadshed[innode_6] 0
loadshed[innode_7] 0
loadshed[innode_8] 0
loadshed[source_1] -3.1048367043350478e-01
loadshed[source_2] 9.6357788355195040e-02
loadshed[source_3] 2.8926894618261756e-01
loadshed[sink_1] 0
loadshed[sink_2] 0
loadshed[sink_3] 0
loadshed[sink_4] 0
loadshed[sink_5] 0
loadshed[sink_6] 0
loadshed[sink_7] 0
loadshed[sink_8] 0
loadshed[sink_9] 0
loadshed[sink_10] 0
loadshed[sink_11] 0
loadshed[sink_12] 7.2638295300978162e-01
loadshed[sink_13] 0
loadshed[sink_14] 0
loadshed[sink_15] 0
loadshed[sink_16] 0
loadshed[sink_17] 0
loadshed[sink_18] 0
loadshed[sink_19] 0
loadshed[sink_20] 0
loadshed[sink_21] 0
loadshed[sink_22] 0
loadshed[sink_23] 0
loadshed[sink_24] 0
loadshed[sink_25] 0
loadshed[sink_26] 0
loadshed[sink_27] 0
loadshed[sink_28] 0
loadshed[sink_29] 0
flow[source_1,sink_3] 2.0717472748207456e+02
flow[innode_1,sink_16] 1.6354166666666970e+01
flow[innode_6,sink_13] 2.1194969433846760e+00
flow[sink_13,sink_14] -1.4234669723281993e+01
flow[sink_14,sink_10] -3.0588836389948938e+01
flow[sink_25,sink_26] 1.7470292935082651e+02
flow[sink_26,sink_9] 1.3530811212265289e+02
flow[sink_9,sink_18] 1.1895394545598622e+02
flow[sink_26,sink_4] 2.3040650561507007e+01
flow[sink_4,sink_20] -1.6800689001553511e+01
flow[sink_18,sink_6] 1.0259977878931954e+02
flow[sink_25,innode_8] -1.7446639414873817e+02
flow[sink_6,sink_7] 53.5372787893192
flow[sink_6,sink_22] 3.2708333333333641e+01
flow[sink_7,sink_24] 3.7183112122652531e+01
flow[sink_22,sink_1] 1.6354166666666970e+01
flow[sink_24,sink_21] 2.0828945455985867e+01
flow[sink_21,sink_12] 4.4747787893191973e+00
flow[sink_7,sink_5] 0
flow[sink_5,sink_17] -1.6354166666667197e+01
flow[sink_17,sink_4] -2.3487172896393851e+01
flow[sink_17,sink_8] -9.2211604369400142e+00
flow[sink_3,sink_23] 16.3541666666697
flow[sink_8,sink_20] -2.5575327103606682e+01
flow[sink_25,sink_20] 5.8730182771826861e+01
flow[sink_25,sink_15] -7.7440381583967635e+01
flow[sink_15,sink_29] -1.1014871491731856e+02
flow[sink_29,sink_28] 1.6354166666667879e+01
flow[sink_29,sink_2] 0
flow[sink_2,sink_15] -1.6354166666684250e+01
flow[sink_29,innode_7] -1.4285704825065267e+02
flow[innode_4,sink_19] 4.3271590603226116e+01
flow[sink_19,innode_3] 0
flow[innode_4,innode_5] 69.0880791200566
flow[sink_27,innode_5] -69.0880791200566
flow[sink_27,sink_19] 5.2733912453389934e+01
flow[sink_10,sink_11] 3.2708333333333641e+01
flow[sink_10,innode_2] -7.9651336389949165e+01
flow[sink_10,innode_3] 0
flow[innode_6,sink_25] -2.1194969433846760e+00
flow[sink_11,innode_1] 1.6354166666666970e+01
flow[sink_19,innode_2] 7.9651336389949165e+01
flow[source_3,innode_4] 1.1235966972328272e+02
flow[source_2,innode_7] 1.4285704825065267e+02
flow[sink_3,innode_8] 1.7446639414873817e+02
pressure[innode_1] 74.8986042014162
pressure[innode_2] 7.9260207608022043e+01
pressure[innode_3] 7.9260207608022043e+01
pressure[innode_4] 81.01325
pressure[innode_5] 8.0965727576155530e+01
pressure[innode_6] 7.3589706777419892e+01
pressure[innode_7] 81.01325
pressure[innode_8] 8.0320744029641958e+01
pressure[source_1] 81.01325
pressure[source_2] 81.01325
pressure[source_3] 81.01325
pressure[sink_1] 4.4042036855338381e+01
pressure[sink_2] 7.3911975337934379e+01
pressure[sink_3] 8.0320744029641958e+01
pressure[sink_4] 5.8356034116326249e+01
pressure[sink_5] 5.6240164609429982e+01
pressure[sink_6] 4.6143114465725752e+01
pressure[sink_7] 4.5408175241506555e+01
pressure[sink_8] 5.7806370154056211e+01
pressure[sink_9] 5.3186942329416922e+01
pressure[sink_10] 7.5050305509019751e+01
pressure[sink_11] 74.8986042014162
pressure[sink_12] 1.0132499999999973e+00
pressure[sink_13] 7.3578022344971856e+01
pressure[sink_14] 7.3603496498967417e+01
pressure[sink_15] 7.3965368087700824e+01
pressure[sink_16] 7.3876954366598525e+01
pressure[sink_17] 5.7458431814784731e+01
pressure[sink_18] 4.8882834039087172e+01
pressure[sink_19] 7.9260207608022043e+01
pressure[sink_20] 5.9588610780420552e+01
pressure[sink_21] 2.6056211988368676e+00
pressure[sink_22] 4.5105805997693388e+01
pressure[sink_23] 8.0156026017982171e+01
pressure[sink_24] 2.83628241736357
pressure[sink_25] 7.3589706777419892e+01
pressure[sink_26] 6.1285482060581970e+01
pressure[sink_27] 8.0392424180502644e+01
pressure[sink_28] 7.6897101327521412e+01
pressure[sink_29] 7.7192383601138587e+01
interdiction[source_1,sink_3] 0
interdiction[innode_1,sink_16] 0
interdiction[innode_6,sink_13] 0
interdiction[sink_13,sink_14] 0
interdiction[sink_14,sink_10] 0
interdiction[sink_25,sink_26] 0
interdiction[sink_26,sink_9] 0
interdiction[sink_9,sink_18] 0
interdiction[sink_26,sink_4] 0
interdiction[sink_4,sink_20] 0
interdiction[sink_18,sink_6] 0
interdiction[sink_25,innode_8] 0
interdiction[sink_6,sink_7] 0
interdiction[sink_6,sink_22] 0
interdiction[sink_7,sink_24] 0
interdiction[sink_22,sink_1] 0
interdiction[sink_24,sink_21] 0
interdiction[sink_21,sink_12] 0
interdiction[sink_7,sink_5] 1
interdiction[sink_5,sink_17] 0
interdiction[sink_17,sink_4] 0
interdiction[sink_17,sink_8] 0
interdiction[sink_3,sink_23] 0
interdiction[sink_8,sink_20] 0
interdiction[sink_25,sink_20] 0
interdiction[sink_25,sink_15] 0
interdiction[sink_15,sink_29] 0
interdiction[sink_29,sink_28] 0
interdiction[sink_29,sink_2] 1
interdiction[sink_2,sink_15] 0
interdiction[sink_29,innode_7] 0
interdiction[innode_4,sink_19] 0
interdiction[sink_19,innode_3] 0
interdiction[innode_4,innode_5] 0
interdiction[sink_27,innode_5] 0
interdiction[sink_27,sink_19] 0
interdiction[sink_10,sink_11] 0
interdiction[sink_10,innode_2] 0
interdiction[sink_10,innode_3] 1
interdiction[innode_6,sink_25] 0
interdiction[sink_11,innode_1] 0
interdiction[sink_19,innode_2] 0
interdiction[source_3,innode_4] 0
interdiction[source_2,innode_7] 0
interdiction[sink_3,innode_8] 0
WCcheckFlow[source_1,sink_3] 39
WCcheckFlow[innode_1,sink_16] 1
WCcheckFlow[innode_6,sink_13] 13
WCcheckFlow[sink_13,sink_14] 12
WCcheckFlow[sink_14,sink_10] 11
WCcheckFlow[sink_25,sink_26] 15
WCcheckFlow[sink_26,sink_9] 9
WCcheckFlow[sink_9,sink_18] 8
WCcheckFlow[sink_26,sink_4] 5
WCcheckFlow[sink_4,sink_20] 1
WCcheckFlow[sink_18,sink_6] 7
WCcheckFlow[sink_25,innode_8] -36
WCcheckFlow[sink_6,sink_7] 4
WCcheckFlow[sink_6,sink_22] 2
WCcheckFlow[sink_7,sink_24] 3
WCcheckFlow[sink_22,sink_1] 1
WCcheckFlow[sink_24,sink_21] 2
WCcheckFlow[sink_21,sink_12] 1
WCcheckFlow[sink_7,sink_5] 0
WCcheckFlow[sink_5,sink_17] -1
WCcheckFlow[sink_17,sink_4] -3
WCcheckFlow[sink_17,sink_8] 1
WCcheckFlow[sink_3,sink_23] 1
WCcheckFlow[sink_8,sink_20] 0
WCcheckFlow[sink_25,sink_20] 0
WCcheckFlow[sink_25,sink_15] 6
WCcheckFlow[sink_15,sink_29] 4
WCcheckFlow[sink_29,sink_28] 1
WCcheckFlow[sink_29,sink_2] 0
WCcheckFlow[sink_2,sink_15] -1
WCcheckFlow[sink_29,innode_7] 2
WCcheckFlow[innode_4,sink_19] -4
WCcheckFlow[sink_19,innode_3] 1
WCcheckFlow[innode_4,innode_5] 2
WCcheckFlow[sink_27,innode_5] -1
WCcheckFlow[sink_27,sink_19] 0
WCcheckFlow[sink_10,sink_11] 3
WCcheckFlow[sink_10,innode_2] 7
WCcheckFlow[sink_10,innode_3] 0
WCcheckFlow[innode_6,sink_25] -14
WCcheckFlow[sink_11,innode_1] 2
WCcheckFlow[sink_19,innode_2] -6
WCcheckFlow[source_3,innode_4] -1
WCcheckFlow[source_2,innode_7] -1
WCcheckFlow[sink_3,innode_8] 37
